StringID   Type       x          y          demand     ReadyTime  DueDate    ServiceTime
D0         d              24.835    81.073      0.000      0.000     23.983      0.000
S0         f              24.835    81.073      0.000      0.000     23.983      0.000
S1         f              38.720    31.670      0.000      0.000     23.983      0.000
S2         f              79.020    13.920      0.000      0.000     23.983      0.000
C0         c              11.606     8.820      0.081      9.390     13.079      0.117
C1         c              93.019    88.519      0.001     14.565     16.692      0.033
C2         c              99.145    26.580      0.002     14.308     16.702      0.050
C3         c              15.790    16.719      0.010     11.373     13.919      0.167
C4         c              63.619    26.346      0.004      8.744     12.149      0.117

Q Vehicle fuel tank capacity /120.0900/
C Vehicle load capacity /1.1800/
r fuel consumption rate /0.4652/
g inverse refueling rate /0.0075/
v average Velocity /43.4500/
gv charging speed /132.5100/

--------------------
instance_id /504/
number of clusters /6/
working_startTime (hour) /8.00/
working_endTime (hour) /21.67/
instance_endTime (hour) /23.98/
service_time_type /random/
demand_type /20_80/
instance_type /R/
instance x range /[0.0, 100.0]/
instance y range /[0.0, 100.0]/
cs_time_to_depot (hour)/[1.181062084303188,1.9859042677361456]/
